(set-logic QF_SLIA)
(declare-fun var0 () String)
(assert (not (str.in_re var0 (re.++ ((_ re.loop 19 179) (re.++ (re.union (str.to_re "*!") (re.union (str.to_re "]s") (re.union (str.to_re "u") (str.to_re ")2")))) (re.++ (re.union (str.to_re "q") (re.union (str.to_re "Q") (re.union (str.to_re "^") (str.to_re "c!%")))) (re.++ (re.union (str.to_re "Q5a") (re.union (str.to_re "<p") (re.union (str.to_re "`") (str.to_re "5~")))) (re.union (str.to_re "#P}") (re.union (str.to_re "o3Y") (re.union (str.to_re "]\\") (str.to_re "\u0022")))))))) (re.++ ((_ re.loop 5 389) (re.++ (re.union (str.to_re "ZI") (re.union (str.to_re "x") (re.union (str.to_re "6Q") (str.to_re "eq")))) (re.++ (re.union (str.to_re "0/*") (re.union (str.to_re "@?") (re.union (str.to_re "0") (str.to_re "W#")))) (re.++ (re.union (str.to_re "R78") (re.union (str.to_re "2!") (re.union (str.to_re "}6I") (str.to_re "e9")))) (re.union (str.to_re ",;") (re.union (str.to_re "9;") (re.union (str.to_re "4") (str.to_re "=YW")))))))) (re.++ ((_ re.loop 18 880) (re.++ (re.union (str.to_re "H") (re.union (str.to_re "N") (re.union (str.to_re "E") (str.to_re "z")))) (re.++ (re.union (str.to_re "pY#") (re.union (str.to_re ".") (re.union (str.to_re "f=y") (str.to_re "5uC")))) (re.++ (re.union (str.to_re "G") (re.union (str.to_re "#K^") (re.union (str.to_re "q") (str.to_re "r")))) (re.union (str.to_re "M`") (re.union (str.to_re "98") (re.union (str.to_re "*9T") (str.to_re "!")))))))) ((_ re.loop 11 415) (re.++ (re.union (str.to_re "45b") (re.union (str.to_re "9") (re.union (str.to_re "6") (str.to_re "yq")))) (re.++ (re.union (str.to_re "*") (re.union (str.to_re "%") (re.union (str.to_re "5") (str.to_re "N")))) (re.++ (re.union (str.to_re ">") (re.union (str.to_re "Y9") (re.union (str.to_re "7R") (str.to_re "i")))) (re.union (str.to_re "cX[") (re.union (str.to_re "_") (re.union (str.to_re ";") (str.to_re "8e."))))))))))))))
(assert (not (str.in_re var0 (re.++ ((_ re.loop 18 827) (re.++ (re.union (str.to_re "/#E") (re.union (str.to_re "4t`") (re.union (str.to_re "M") (str.to_re "5")))) (re.++ (re.union (str.to_re ":") (re.union (str.to_re "x8") (re.union (str.to_re "lN4") (str.to_re "vx?")))) (re.++ (re.union (str.to_re "ZH") (re.union (str.to_re "7y") (re.union (str.to_re "K") (str.to_re "Qo4")))) (re.union (str.to_re "1") (re.union (str.to_re "IJ1") (re.union (str.to_re "Y") (str.to_re "V]")))))))) (re.++ ((_ re.loop 6 34) (re.++ (re.union (str.to_re "o") (re.union (str.to_re "RRf") (re.union (str.to_re "{8") (str.to_re "Q'")))) (re.++ (re.union (str.to_re "7M,") (re.union (str.to_re "X") (re.union (str.to_re "k") (str.to_re "V]")))) (re.++ (re.union (str.to_re ">e") (re.union (str.to_re "X0") (re.union (str.to_re "M") (str.to_re "t{")))) (re.union (str.to_re "x") (re.union (str.to_re "Uis") (re.union (str.to_re "5E") (str.to_re "]")))))))) (re.++ ((_ re.loop 16 964) (re.++ (re.union (str.to_re "[[*") (re.union (str.to_re "V~") (re.union (str.to_re "N}U") (str.to_re "g")))) (re.++ (re.union (str.to_re "H)A") (re.union (str.to_re "aI") (re.union (str.to_re ">") (str.to_re "36>")))) (re.++ (re.union (str.to_re "A") (re.union (str.to_re "3B+") (re.union (str.to_re "&+") (str.to_re "J")))) (re.union (str.to_re "1x") (re.union (str.to_re "3@") (re.union (str.to_re "#O") (str.to_re "s?G")))))))) ((_ re.loop 10 381) (re.++ (re.union (str.to_re "D/.") (re.union (str.to_re "$") (re.union (str.to_re "Ih.") (str.to_re "_G")))) (re.++ (re.union (str.to_re "9t1") (re.union (str.to_re "^7") (re.union (str.to_re ",t6") (str.to_re "3")))) (re.++ (re.union (str.to_re "4R") (re.union (str.to_re "MU") (re.union (str.to_re "`") (str.to_re "#k&")))) (re.union (str.to_re "Sh4") (re.union (str.to_re "R") (re.union (str.to_re "4") (str.to_re "*"))))))))))))))
(assert (not (str.in_re var0 (re.++ (re.* re.allchar) (re.++ (re.union (str.to_re "<") (re.union (str.to_re ">") (re.union (str.to_re "'") (re.union (str.to_re "\u0022") (str.to_re "&"))))) (re.* re.allchar))))))
(assert (<= 50 (str.len var0)))
(check-sat)
(get-model)
